* #variable= 27 #constraint= 38 
-1 x19 -1 x1 -1 x10 >= -2 ;
-1 x19 +1 x1 +1 x10 >= 0 ;
+1 x19 -1 x1 +1 x10 >= 0 ;
+1 x19 +1 x1 -1 x10 >= 0 ;
-1 x20 -1 x2 -1 x11 >= -2 ;
-1 x20 +1 x2 +1 x11 >= 0 ;
+1 x20 -1 x2 +1 x11 >= 0 ;
+1 x20 +1 x2 -1 x11 >= 0 ;
-1 x21 -1 x3 -1 x12 >= -2 ;
-1 x21 +1 x3 +1 x12 >= 0 ;
+1 x21 -1 x3 +1 x12 >= 0 ;
+1 x21 +1 x3 -1 x12 >= 0 ;
-1 x22 -1 x4 -1 x13 >= -2 ;
-1 x22 +1 x4 +1 x13 >= 0 ;
+1 x22 -1 x4 +1 x13 >= 0 ;
+1 x22 +1 x4 -1 x13 >= 0 ;
-1 x23 -1 x5 -1 x14 >= -2 ;
-1 x23 +1 x5 +1 x14 >= 0 ;
+1 x23 -1 x5 +1 x14 >= 0 ;
+1 x23 +1 x5 -1 x14 >= 0 ;
-1 x24 -1 x6 -1 x15 >= -2 ;
-1 x24 +1 x6 +1 x15 >= 0 ;
+1 x24 -1 x6 +1 x15 >= 0 ;
+1 x24 +1 x6 -1 x15 >= 0 ;
-1 x25 -1 x7 -1 x16 >= -2 ;
-1 x25 +1 x7 +1 x16 >= 0 ;
+1 x25 -1 x7 +1 x16 >= 0 ;
+1 x25 +1 x7 -1 x16 >= 0 ;
-1 x26 -1 x8 -1 x17 >= -2 ;
-1 x26 +1 x8 +1 x17 >= 0 ;
+1 x26 -1 x8 +1 x17 >= 0 ;
+1 x26 +1 x8 -1 x17 >= 0 ;
-1 x27 -1 x9 -1 x18 >= -2 ;
-1 x27 +1 x9 +1 x18 >= 0 ;
+1 x27 -1 x9 +1 x18 >= 0 ;
+1 x27 +1 x9 -1 x18 >= 0 ;
+1 x1 -1 x10 +2 x2 -2 x11 +4 x3 -4 x12 +8 x4 -8 x13 +16 x5 -16 x14 +32 x6 -32 x15 +64 x7 -64 x16 +128 x8 -128 x17 +256 x9 -256 x18 = 0 ;
+1 x19 +1 x20 +1 x21 +1 x22 +1 x23 +1 x24 +1 x25 +1 x26 +1 x27 >= 1 ;
